44 8 4 49 56 68 3 99 94 27 57 54 83 71 40 41 7 37 20 15 97 59 52 21 96 93 77 73 60 48 1 22 24 72 28 38 98 84 79 85 75 63 36 66 18 74 32 29 9 51 11 43 6 12 87 62 80 61 88 16 92 33 23 65 89 67 47 82 58 50 13 70 91 90 19 30 76 46 53 81 64 69 42 35 45 17 25 10 5 2 34 78 26 0 39 31 55 14 86 95 